p cnf 2725 2512
c ind 994 995 996 997 998 999 1000 1001 1002 1003 0
c ind 1004 1005 1006 1007 1008 1009 1010 1011 1012 1013 0
c ind 1014 1015 1016 1017 1018 1019 1020 1021 1022 1023 0
c ind 1024 1025 1026 1027 1028 1029 911 912 913 914 0
c ind 915 916 917 918 919 920 921 922 923 924 0
c ind 925 926 927 928 929 930 931 932 933 934 0
c ind 935 936 937 938 939 940 941 942 943 944 0
c ind 945 946 947 948 949 950 951 952 953 954 0
c ind 955 956 957 958 959 960 961 962 963 964 0
c ind 965 966 967 968 969 970 971 972 973 974 0
c ind 975 976 977 978 1154 1155 1156 1157 1158 1159 0
c ind 1151 1033 1034 1374 1375 1376 1377 1160 1378 1161 0
c ind 1379 1380 1381 1162 1382 1163 1383 889 890 891 0
c ind 892 893 894 895 896 897 898 899 900 1164 0
c ind 901 1165 902 1166 903 1167 904 905 906 907 0
c ind 908 909 910 1267 1268 1269 1152 1168 1270 1271 0
c ind 1272 1273 1274 1169 1170 1275 1276 1171 1277 1172 0
c ind 1278 1279 1280 1281 1282 1283 1284 1173 1285 1286 0
c ind 1287 1288 822 823 1174 824 1175 825 826 827 0
c ind 828 1176 1177 829 830 831 832 833 834 835 0
c ind 836 837 838 839 840 841 842 843 1178 1153 0
c ind 1080 1179 1081 1180 1181 1082 1083 1084 1085 1086 0
c ind 1087 1088 1089 1090 1091 1092 1182 1093 1094 1095 0
c ind 1096 1097 1098 1183 1099 1184 1100 1101 1185 1186 0
c ind 1102 1103 1104 1105 1106 1107 1108 1109 1187 1188 0
c ind 1110 1111 1112 1189 1113 1114 1115 1116 1117 1118 0
c ind 1119 1030 1120 1121 1122 1123 1124 1125 1126 1127 0
c ind 1190 1128 1129 1130 1191 1131 1192 1132 1133 1193 0
c ind 1194 1134 1135 1136 1137 1138 1139 1140 1141 1142 0
c ind 1143 1144 1145 1146 1147 1148 1149 1150 844 845 0
c ind 846 847 848 849 850 851 852 853 854 855 0
c ind 856 857 858 859 860 861 862 863 864 865 0
c ind 866 867 868 869 870 871 872 873 874 875 0
c ind 876 877 878 879 880 881 882 883 1031 884 0
c ind 885 886 887 888 1035 1036 1037 1038 1039 1040 0
c ind 1041 1042 1043 1044 1045 1046 1047 1048 1049 1050 0
c ind 1051 1052 1053 1054 1055 1056 1057 1058 1059 1060 0
c ind 1061 1062 1063 1064 1065 1066 1067 1068 1032 1069 0
c ind 1070 1071 1072 1073 1074 1075 1076 1077 1078 1079 0
c ind 1222 1223 1224 1225 1226 1227 1228 1229 1230 1231 0
c ind 1232 1233 1234 1235 1236 1237 1238 1239 1240 1241 0
c ind 1242 1243 1244 1245 1246 1247 1248 1249 1250 1251 0
c ind 1252 1253 1254 1255 1256 1257 1258 1259 1260 1261 0
c ind 1262 1263 1264 1265 1266 979 980 981 982 983 0
c ind 984 985 986 987 988 989 990 991 992 993 0
672 -673 783 0
672 -673 700 0
-672 673 0
-700 -783 -672 0
673 -674 -688 -699 0
-673 674 0
-673 688 0
-673 699 0
674 675 -679 0
-674 -675 0
-674 679 0
-676 -903 675 0
-678 -903 675 0
-677 -903 675 0
-675 903 0
-675 676 677 678 0
676 -909 910 1267 0
-676 909 0
-676 -1267 0
-676 -910 0
677 909 1268 1269 0
-677 -909 0
-677 -1269 0
-677 -1268 0
678 -904 905 906 0
-678 904 0
-678 -906 0
-678 -905 0
679 680 684 -1082 -1285 0
-679 1285 0
-679 -684 0
-679 1082 0
-679 -680 0
681 1083 680 1084 1085 0
-680 -681 0
-680 -1085 0
-680 -1083 0
-680 -1084 0
681 682 -1088 0
681 682 683 -1089 0
-681 -682 0
-681 -683 1088 0
-681 1088 1089 0
682 1086 -1087 0
-682 -1086 0
-682 1087 0
683 1094 1095 0
683 1094 1102 1103 0
-683 -1094 0
-683 -1095 -1102 0
-683 -1095 -1103 0
685 1286 684 1287 1288 0
-684 -685 0
-684 -1288 0
-684 -1286 0
-684 -1287 0
685 686 -824 0
685 686 687 -825 0
-685 -686 0
-685 -687 824 0
-685 824 825 0
686 822 -823 0
-686 -822 0
-686 823 0
687 830 831 0
687 830 838 839 0
-687 -830 0
-687 -831 -838 0
-687 -831 -839 0
688 689 692 -695 0
688 689 693 -695 0
-688 -689 0
-688 695 0
-692 -693 -688 0
-690 -691 689 -874 0
-690 -691 689 -875 0
-689 691 0
-689 690 0
-689 874 875 0
690 877 878 879 880 0
-690 -880 0
-690 -879 0
-690 -877 0
-690 -878 0
691 -871 -872 -873 876 0
-691 873 0
-691 -876 0
-691 871 0
-691 872 0
692 -885 -1038 0
-692 885 0
-692 1038 0
693 -694 -1039 1040 0
-693 1039 0
-693 -1040 0
-693 694 0
694 1042 -1043 -1044 1045 0
-694 -1042 0
-694 -1045 0
-694 1044 0
-694 1043 0
695 -696 1151 0
695 -696 698 0
-695 696 0
-698 -1151 -695 0
696 -697 -918 -947 0
-696 918 0
-696 947 0
-696 697 0
697 -979 -1008 -1067 -1238 0
-697 1238 0
-697 979 0
-697 1067 0
-697 1008 0
698 844 845 1150 0
-698 -844 0
-698 -1150 0
-698 -845 0
699 -1030 1032 0
699 -1031 -1153 0
699 -1030 -1031 0
699 1032 -1153 0
1031 -1032 -699 0
1030 1153 -699 0
700 -701 -730 -739 -764 0
-700 764 0
-700 701 0
-700 739 0
-700 730 0
701 719 -1369 0
701 702 719 0
-701 -719 0
-701 -702 1369 0
702 -703 -696 0
702 717 -696 0
696 -702 0
-702 703 -717 0
703 -704 -716 -1194 0
703 704 -705 -716 0
-703 716 0
-703 -704 1194 0
-703 704 705 0
704 1062 -1064 0
-704 -1062 0
-704 1064 0
705 -706 -1193 0
705 706 -707 0
-705 -706 1193 0
-705 706 707 0
706 888 -1036 0
-706 -888 0
-706 1036 0
707 708 689 715 0
707 708 689 -712 0
-689 -707 0
-707 -708 0
-707 712 -715 0
708 -710 -864 1151 0
708 709 864 1151 0
-708 -1151 0
-708 710 -864 0
-708 -709 864 0
709 -1190 -674 0
-709 1190 0
674 -709 0
710 -711 1191 0
709 710 711 0
-710 -711 -1191 0
-709 -710 711 0
711 1137 -1139 0
-711 -1137 0
-711 1139 0
710 712 -713 0
-710 -712 0
-712 713 0
713 714 -844 0
713 714 -845 0
713 714 -1150 0
-713 -714 0
-713 844 845 1150 0
714 851 -853 0
-714 -851 0
-714 853 0
714 715 -1151 0
715 -1151 1192 0
-715 1151 0
-714 -715 -1192 0
716 -885 1038 0
-716 885 0
-716 -1038 0
717 718 -885 0
705 707 717 0
707 717 718 0
705 717 -885 0
-707 -717 885 0
-705 -717 -718 0
693 718 -885 -1038 0
-718 885 0
-718 1038 0
-693 -718 0
719 -720 1200 0
719 720 -1200 0
-719 -720 -1200 0
-719 720 1200 0
720 -721 -696 0
720 729 -696 0
696 -720 0
-720 721 -729 0
704 -716 721 -722 0
-704 -716 721 -1163 0
716 -721 0
704 -721 722 0
-704 -721 1163 0
-706 722 -1162 0
706 722 -723 0
-706 -722 1162 0
706 -722 723 0
723 724 689 728 0
723 724 689 -727 0
-689 -723 0
-723 -724 0
-723 727 -728 0
724 725 -1151 1161 0
714 724 725 -1151 0
-724 1151 0
-724 -725 0
-714 -724 -1161 0
-713 725 726 0
713 -725 0
-725 -726 0
-711 726 1160 0
674 711 726 0
711 726 1032 0
-711 -726 -1160 0
711 -726 -674 -1032 0
727 864 -674 -1032 0
711 727 -674 -1032 0
674 -727 0
-727 1032 0
-711 -727 -864 0
711 728 1151 0
728 1151 1160 0
728 864 1151 0
-728 -1151 0
-711 -728 -864 -1160 0
722 729 -885 0
718 723 729 0
722 723 729 0
718 729 -885 0
-718 -722 -729 0
-723 -729 885 0
730 -696 -731 0
730 -696 738 0
696 -730 0
731 -738 -730 0
704 -716 731 -732 0
-704 -716 731 -1167 0
716 -731 0
704 -731 732 0
-704 -731 1167 0
-706 732 -1166 0
706 732 -733 0
-706 -732 1166 0
706 -732 733 0
733 734 689 737 0
733 734 689 -736 0
-689 -733 0
-733 -734 0
-733 736 -737 0
734 -735 -864 1151 0
674 734 864 1151 0
-734 -1151 0
-734 735 -864 0
-734 864 -674 0
674 711 735 0
-711 735 1164 0
711 -735 -674 0
-711 -735 -1164 0
-713 735 736 0
713 -736 0
-735 -736 0
714 737 -1151 0
737 -1151 1165 0
-737 1151 0
-714 -737 -1165 0
732 738 -885 0
718 733 738 0
732 733 738 0
718 738 -885 0
-718 -732 -738 0
-733 -738 885 0
739 740 754 -757 1352 0
739 -740 754 -757 -1352 0
-739 -754 0
-739 -740 1352 0
-739 757 0
-739 740 -1352 0
740 751 -696 0
740 741 -696 -744 0
696 -740 0
-740 -741 -751 0
-740 744 -751 0
741 -743 -864 1151 0
741 742 864 1151 0
-741 -1151 0
-741 743 -864 0
-741 -742 864 0
742 -1173 -674 0
-742 1173 0
674 -742 0
-711 743 1174 0
711 742 743 0
-711 -743 -1174 0
711 -742 -743 0
744 745 -746 0
-713 743 744 -746 0
-744 746 0
-743 -744 -745 0
713 -744 -745 0
714 745 -1151 0
745 -1151 1175 0
-745 1151 0
-714 -745 -1175 0
746 747 689 0
-689 -746 0
-746 -747 0
-706 747 -885 0
747 748 -885 0
-747 885 0
706 -747 -748 0
748 749 750 0
694 748 749 -885 0
-748 -749 0
-748 -750 885 0
-694 -748 -750 0
-704 749 1038 0
-749 -1038 0
704 -749 0
750 -1038 -1039 1040 0
-750 1038 0
-750 1039 0
-750 -1040 0
704 751 752 0
716 751 752 0
751 752 1177 0
-751 -752 0
-704 -716 -751 -1177 0
-706 752 -753 -1176 0
-752 1176 0
706 -752 0
-752 753 0
-748 753 -885 0
-753 885 0
748 -753 0
754 -755 -1332 0
754 755 1332 0
-754 -755 1332 0
-754 755 -1332 0
755 -756 -688 0
688 -755 0
-755 756 0
756 -976 -679 978 0
-756 976 0
-756 -978 0
679 -756 0
757 758 -688 -761 0
757 -758 -688 -760 0
688 -757 0
-758 760 -757 0
758 761 -757 0
758 -865 1115 0
758 759 1115 0
758 -864 1115 0
-758 -1115 0
-758 -759 864 865 0
759 866 867 868 1151 0
-759 -1151 0
-759 -868 0
-759 -866 0
-759 -867 0
760 -1159 -1189 0
756 760 -1189 0
-760 1189 0
-756 -760 1159 0
761 763 -679 -1157 0
761 762 -679 763 0
679 -761 0
-761 -763 0
-761 -762 1157 0
762 -976 978 0
-762 976 0
-762 -978 0
-675 763 976 0
763 976 1188 1377 0
-763 -976 0
-763 -1188 675 0
-763 -1377 675 0
764 -765 -773 -1361 0
764 765 -773 1361 0
-764 773 0
-764 765 -1361 0
-764 -765 1361 0
765 771 -696 0
765 766 -696 -769 0
696 -765 0
-765 -766 -771 0
-765 769 -771 0
766 -768 -864 1151 0
766 767 864 1151 0
-766 -1151 0
-766 768 -864 0
-766 -767 864 0
767 -1182 -674 0
-767 1182 0
674 -767 0
-711 768 1183 0
711 767 768 0
-711 -768 -1183 0
711 -767 -768 0
-746 769 770 0
-713 -746 768 769 0
746 -769 0
713 -769 -770 0
-768 -769 -770 0
714 770 -1151 0
770 -1151 1184 0
-770 1151 0
-714 -770 -1184 0
704 771 772 0
716 771 772 0
771 772 1186 0
-771 -772 0
-704 -716 -771 -1186 0
-706 -753 772 -1185 0
-772 1185 0
706 -772 0
753 -772 0
747 773 -696 774 0
773 774 -696 782 0
696 -773 0
-773 -774 0
-747 -782 -773 0
776 885 774 0
706 775 774 776 0
-774 -776 0
-774 -775 -885 0
-706 -774 -885 0
-704 775 1038 -1181 0
704 -775 0
-775 1181 0
-775 -1038 0
776 777 689 781 0
776 777 689 -780 0
-689 -776 0
-776 -777 0
-776 780 -781 0
777 -779 -864 1151 0
777 778 864 1151 0
-777 -1151 0
-777 779 -864 0
-777 -778 864 0
778 -1031 -674 0
-778 1031 0
674 -778 0
-711 779 1178 0
711 778 779 0
-711 -779 -1178 0
711 -778 -779 0
-713 779 780 0
713 -780 0
-779 -780 0
714 781 -1151 0
781 -1151 1179 0
-781 1151 0
-714 -781 -1179 0
775 782 1180 0
748 775 782 0
-775 -782 0
-748 -782 -1180 0
783 -784 794 -1347 0
783 784 794 1347 0
-783 -794 0
-783 784 -1347 0
-783 -784 1347 0
784 -785 -696 0
784 793 -696 0
696 -784 0
-784 785 -793 0
704 -716 785 -786 0
-704 -716 785 -1172 0
716 -785 0
704 -785 786 0
-704 -785 1172 0
-706 786 -1171 0
706 786 -787 0
-706 -786 1171 0
706 -786 787 0
787 788 689 792 0
787 788 689 -791 0
-689 -787 0
-787 -788 0
-787 791 -792 0
788 -790 -864 1151 0
788 789 864 1151 0
-788 -1151 0
-788 790 -864 0
-788 -789 864 0
789 -1168 -674 0
-789 1168 0
674 -789 0
-711 790 1169 0
711 789 790 0
-711 -790 -1169 0
711 -789 -790 0
-713 790 791 0
713 -791 0
-790 -791 0
714 792 -1151 0
792 -1151 1170 0
-792 1151 0
-714 -792 -1170 0
786 793 -885 0
718 787 793 0
786 787 793 0
718 793 -885 0
-718 -786 -793 0
-787 -793 885 0
702 794 -1369 0
-794 1369 0
-702 -794 0
796 -673 795 0
-702 2153 795 -673 0
702 -2153 795 -673 0
673 -795 0
702 -795 -796 2153 0
-702 -795 -796 -2153 0
720 796 797 -798 1984 0
-720 796 797 -798 -1984 0
-796 -797 0
-720 1984 -796 0
-796 798 0
720 -1984 -796 0
-784 2131 797 0
784 -2131 797 0
-784 -797 -2131 0
784 -797 2131 0
765 798 -730 -799 2145 0
-765 798 -730 -799 -2145 0
-798 799 0
765 -2145 -798 0
730 -798 0
-765 2145 -798 0
740 799 -800 -801 2136 0
-740 799 -800 -801 -2136 0
-799 801 0
740 -2136 -799 0
-799 800 0
-740 2136 -799 0
-755 800 2116 0
755 800 -2116 0
-755 -2116 -800 0
755 2116 -800 0
801 -773 -757 0
757 -801 0
773 -801 0
-784 802 -673 0
700 802 -673 0
-794 802 -673 0
673 -802 0
-700 784 794 -802 0
803 806 -673 0
730 803 -673 0
803 804 -673 0
673 -803 0
-803 -804 -730 -806 0
-739 804 -805 0
739 -804 0
-804 805 0
-701 794 805 0
701 -805 0
-794 -805 0
765 806 -773 0
-765 -806 0
773 -806 0
-740 807 -673 0
807 808 -673 0
805 807 -673 0
673 -807 0
740 -805 -807 -808 0
754 808 -809 0
-754 -808 0
-808 809 0
809 -801 -730 0
730 -809 0
801 -809 0
-702 810 -673 0
810 811 -673 0
673 -810 0
702 -810 -811 0
719 -808 811 0
-719 -811 0
808 -811 0
-720 812 -673 0
808 812 -673 0
673 -812 0
720 -808 -812 0
809 813 -673 0
755 813 -673 0
673 -813 0
-755 -813 -809 0
809 814 -673 0
673 -814 0
-809 -814 0
784 815 -673 0
700 815 -673 0
-794 815 -673 0
673 -815 0
-700 -784 794 -815 0
816 817 -673 0
730 816 -673 0
804 816 -673 0
673 -816 0
-804 -816 -730 -817 0
-765 817 -773 0
765 -817 0
773 -817 0
808 818 -673 0
740 818 -673 0
805 818 -673 0
673 -818 0
-740 -805 -808 -818 0
811 819 -673 0
702 819 -673 0
673 -819 0
-702 -811 -819 0
808 820 -673 0
720 820 -673 0
673 -820 0
-720 -808 -820 0
-755 821 -673 0
809 821 -673 0
673 -821 0
755 -821 -809 0
1 672 0
-1 -672 0
2 672 0
-2 -672 0
3 795 0
-3 -795 0
91 -802 0
-91 802 0
92 -803 0
-92 803 0
93 -807 0
-93 807 0
94 -810 0
-94 810 0
101 -812 0
-101 812 0
117 -813 0
-117 813 0
240 -814 0
-240 814 0
425 -815 0
-425 815 0
426 -816 0
-426 816 0
427 -818 0
-427 818 0
428 -819 0
-428 819 0
435 -820 0
-435 820 0
451 -821 0
-451 821 0
574 -814 0
-574 814 0
-91 -425 2478 0
91 -2478 0
425 -2478 0
91 -1347 0
-91 1347 0
-92 -426 2479 0
92 -2479 0
426 -2479 0
92 -1361 0
-92 1361 0
-93 -427 2480 0
93 -2480 0
427 -2480 0
93 -1352 0
-93 1352 0
-94 -428 2481 0
94 -2481 0
428 -2481 0
94 -1369 0
-94 1369 0
-101 -435 2488 0
101 -2488 0
435 -2488 0
101 -1200 0
-101 1200 0
-117 -451 2504 0
117 -2504 0
451 -2504 0
117 -1332 0
-117 1332 0
-240 -574 2627 0
240 -2627 0
574 -2627 0
240 -1476 0
-240 1476 0
-1 0
-2 0
3 0
4 0
5 0
6 0
7 0
8 0
9 0
10 0
11 0
12 0
13 0
14 0
15 0
16 0
17 0
18 0
19 0
20 0
21 0
22 0
23 0
24 0
25 0
26 0
27 0
28 0
29 0
30 0
31 0
32 0
33 0
34 0
35 0
36 0
37 0
38 0
39 0
40 0
41 0
42 0
43 0
44 0
45 0
46 0
47 0
48 0
49 0
50 0
51 0
52 0
53 0
54 0
55 0
56 0
57 0
58 0
59 0
60 0
61 0
62 0
63 0
64 0
65 0
66 0
67 0
68 0
69 0
70 0
71 0
72 0
73 0
74 0
75 0
76 0
77 0
78 0
79 0
80 0
81 0
82 0
83 0
84 0
85 0
86 0
87 0
88 0
89 0
90 0
95 0
96 0
97 0
98 0
99 0
100 0
102 0
103 0
104 0
105 0
106 0
107 0
108 0
109 0
110 0
111 0
112 0
113 0
114 0
115 0
116 0
118 0
119 0
120 0
121 0
122 0
123 0
124 0
125 0
126 0
127 0
128 0
129 0
130 0
131 0
132 0
133 0
134 0
135 0
136 0
137 0
138 0
139 0
140 0
141 0
142 0
143 0
144 0
145 0
146 0
147 0
148 0
149 0
150 0
151 0
152 0
153 0
154 0
155 0
156 0
157 0
158 0
159 0
160 0
161 0
162 0
163 0
164 0
165 0
166 0
167 0
168 0
169 0
170 0
171 0
172 0
173 0
174 0
175 0
176 0
177 0
178 0
179 0
180 0
181 0
182 0
183 0
184 0
185 0
-186 0
187 0
188 0
189 0
190 0
191 0
192 0
193 0
194 0
195 0
196 0
197 0
198 0
199 0
200 0
201 0
202 0
203 0
204 0
205 0
206 0
207 0
208 0
209 0
210 0
211 0
212 0
213 0
214 0
215 0
216 0
217 0
218 0
219 0
220 0
221 0
222 0
223 0
224 0
225 0
226 0
227 0
228 0
229 0
230 0
231 0
232 0
233 0
234 0
235 0
236 0
237 0
238 0
239 0
-240 0
241 0
242 0
243 0
244 0
245 0
246 0
247 0
248 0
-249 0
250 0
251 0
252 0
253 0
254 0
255 0
256 0
257 0
258 0
259 0
260 0
261 0
262 0
263 0
264 0
265 0
266 0
267 0
268 0
269 0
270 0
271 0
272 0
273 0
274 0
275 0
276 0
-277 0
278 0
279 0
280 0
281 0
282 0
283 0
284 0
285 0
286 0
287 0
288 0
289 0
290 0
291 0
292 0
293 0
294 0
295 0
296 0
297 0
298 0
299 0
300 0
301 0
302 0
303 0
304 0
305 0
306 0
307 0
308 0
309 0
310 0
311 0
312 0
313 0
314 0
315 0
316 0
317 0
318 0
319 0
320 0
321 0
322 0
323 0
324 0
325 0
326 0
327 0
328 0
329 0
330 0
331 0
332 0
333 0
334 0
335 0
336 0
337 0
-338 0
-339 0
-340 0
-341 0
-342 0
-343 0
-344 0
-345 0
-346 0
-347 0
-348 0
-349 0
-350 0
-351 0
-352 0
-353 0
-354 0
-355 0
-356 0
-357 0
-358 0
-359 0
-360 0
-361 0
-362 0
-363 0
-364 0
-365 0
-366 0
-367 0
-368 0
-369 0
-370 0
-371 0
-372 0
-373 0
-374 0
-375 0
-376 0
-377 0
-378 0
-379 0
-380 0
-381 0
-382 0
-383 0
-384 0
-385 0
-386 0
-387 0
-388 0
-389 0
-390 0
-391 0
-392 0
-393 0
-394 0
-395 0
-396 0
-397 0
-398 0
-399 0
-400 0
-401 0
-402 0
-403 0
-404 0
-405 0
-406 0
-407 0
-408 0
-409 0
-410 0
-411 0
-412 0
-413 0
-414 0
-415 0
-416 0
-417 0
-418 0
-419 0
-420 0
-421 0
-422 0
-423 0
-424 0
-429 0
-430 0
-431 0
-432 0
-433 0
-434 0
-436 0
-437 0
-438 0
-439 0
-440 0
-441 0
-442 0
-443 0
-444 0
-445 0
-446 0
-447 0
-448 0
-449 0
-450 0
-452 0
-453 0
-454 0
-455 0
-456 0
-457 0
-458 0
-459 0
-460 0
-461 0
-462 0
-463 0
-464 0
-465 0
-466 0
-467 0
-468 0
-469 0
-470 0
-471 0
-472 0
-473 0
-474 0
-475 0
-476 0
-477 0
-478 0
-479 0
-480 0
-481 0
-482 0
-483 0
-484 0
-485 0
-486 0
-487 0
-488 0
-489 0
-490 0
-491 0
-492 0
-493 0
-494 0
-495 0
-496 0
-497 0
-498 0
-499 0
-500 0
-501 0
-502 0
-503 0
-504 0
-505 0
-506 0
-507 0
-508 0
-509 0
-510 0
-511 0
-512 0
-513 0
-514 0
-515 0
-516 0
-517 0
-518 0
-519 0
520 0
-521 0
-522 0
-523 0
-524 0
-525 0
-526 0
-527 0
-528 0
-529 0
-530 0
-531 0
-532 0
-533 0
-534 0
-535 0
-536 0
-537 0
-538 0
-539 0
-540 0
-541 0
-542 0
-543 0
-544 0
-545 0
-546 0
-547 0
-548 0
-549 0
-550 0
-551 0
-552 0
-553 0
-554 0
-555 0
-556 0
-557 0
-558 0
-559 0
-560 0
-561 0
-562 0
-563 0
-564 0
-565 0
-566 0
-567 0
-568 0
-569 0
-570 0
-571 0
-572 0
-573 0
-574 0
-575 0
-576 0
-577 0
-578 0
-579 0
-580 0
-581 0
-582 0
583 0
-584 0
-585 0
-586 0
-587 0
-588 0
-589 0
-590 0
-591 0
-592 0
-593 0
-594 0
-595 0
-596 0
-597 0
-598 0
-599 0
-600 0
-601 0
-602 0
-603 0
-604 0
-605 0
-606 0
-607 0
-608 0
-609 0
-610 0
611 0
-612 0
-613 0
-614 0
-615 0
-616 0
-617 0
-618 0
-619 0
-620 0
-621 0
-622 0
-623 0
-624 0
-625 0
-626 0
-627 0
-628 0
-629 0
-630 0
-631 0
-632 0
-633 0
-634 0
-635 0
-636 0
-637 0
-638 0
-639 0
-640 0
-641 0
-642 0
-643 0
-644 0
-645 0
-646 0
-647 0
-648 0
-649 0
-650 0
-651 0
-652 0
-653 0
-654 0
-655 0
-656 0
-657 0
-658 0
-659 0
-660 0
-661 0
-662 0
-663 0
-664 0
-665 0
-666 0
-667 0
-668 0
-669 0
-670 0
-671 0
672 0
673 0
674 0
-675 0
679 0
-680 0
-684 0
688 0
-689 0
695 0
696 0
697 0
699 0
730 0
757 0
773 0
-774 0
-795 0
796 0
-797 0
798 0
799 0
800 0
801 0
809 0
-814 0
918 0
947 0
979 0
1008 0
1067 0
1082 0
-1195 0
1196 0
1197 0
1198 0
1199 0
1201 0
1202 0
1203 0
1204 0
1205 0
1206 0
1207 0
1208 0
1209 0
1210 0
1211 0
1212 0
1213 0
1214 0
1215 0
1216 0
1217 0
1218 0
1219 0
1220 0
1221 0
1238 0
1285 0
1289 0
1290 0
1291 0
1292 0
1293 0
1294 0
1295 0
1296 0
1297 0
1298 0
1299 0
1300 0
1301 0
1302 0
1303 0
1304 0
1305 0
1306 0
1307 0
1308 0
1309 0
1310 0
1311 0
1312 0
1313 0
1314 0
1315 0
1316 0
1317 0
1318 0
1319 0
1320 0
1321 0
1322 0
1323 0
1324 0
1325 0
1326 0
1327 0
1328 0
1329 0
1330 0
1331 0
1333 0
1334 0
1335 0
1336 0
1337 0
1338 0
1339 0
1340 0
1341 0
1342 0
1343 0
1344 0
1345 0
1346 0
1348 0
1349 0
1350 0
1351 0
1353 0
1354 0
1355 0
1356 0
1357 0
1358 0
1359 0
1360 0
1362 0
1363 0
1364 0
1365 0
1366 0
1367 0
1368 0
1370 0
1371 0
1372 0
1373 0
1384 0
1385 0
1386 0
1387 0
1388 0
1389 0
1390 0
1391 0
1392 0
1393 0
1394 0
1395 0
1396 0
1397 0
1398 0
1399 0
1400 0
1401 0
1402 0
1403 0
1404 0
1405 0
1406 0
1407 0
1408 0
1409 0
1410 0
1411 0
1412 0
1413 0
1414 0
1415 0
1416 0
1417 0
1418 0
1419 0
-1420 0
1421 0
1422 0
1423 0
1424 0
1425 0
1426 0
1427 0
1428 0
1429 0
1430 0
1431 0
1432 0
1433 0
1434 0
1435 0
1436 0
1437 0
1438 0
1439 0
1440 0
1441 0
1442 0
1443 0
1444 0
1445 0
1446 0
1447 0
-1448 0
1449 0
1450 0
1451 0
1452 0
1453 0
1454 0
1455 0
1456 0
1457 0
1458 0
1459 0
1460 0
1461 0
1462 0
1463 0
1464 0
1465 0
1466 0
1467 0
1468 0
1469 0
1470 0
1471 0
1472 0
1473 0
1474 0
1475 0
-1476 0
1477 0
1478 0
1479 0
1480 0
1481 0
1482 0
1483 0
1484 0
1485 0
1486 0
1487 0
1488 0
1489 0
1490 0
1491 0
1492 0
1493 0
1494 0
1495 0
1496 0
1497 0
1498 0
1499 0
1500 0
1501 0
1502 0
1503 0
1504 0
1505 0
1506 0
1507 0
1508 0
1509 0
1510 0
1511 0
1512 0
1513 0
1514 0
1515 0
1516 0
1517 0
1518 0
1519 0
1520 0
1521 0
1522 0
1523 0
1524 0
1525 0
1526 0
1527 0
1528 0
1529 0
1530 0
1531 0
1532 0
1533 0
1534 0
1535 0
1536 0
1537 0
1538 0
1539 0
1540 0
1541 0
1542 0
1543 0
1544 0
1545 0
1546 0
1547 0
1548 0
1549 0
1550 0
1551 0
1552 0
1553 0
1554 0
1555 0
1556 0
1557 0
1558 0
1559 0
1560 0
1561 0
1562 0
1563 0
1564 0
1565 0
1566 0
1567 0
1568 0
1569 0
1570 0
1571 0
1572 0
1573 0
1574 0
1575 0
1576 0
1577 0
1578 0
1579 0
1580 0
1581 0
1582 0
1583 0
1584 0
1585 0
1586 0
1587 0
1588 0
1589 0
1590 0
1591 0
1592 0
1593 0
1594 0
1595 0
1596 0
1597 0
1598 0
1599 0
1600 0
1601 0
1602 0
1603 0
1604 0
1605 0
2390 0
-2391 0
-2392 0
-2393 0
-2394 0
-2395 0
-2396 0
-2397 0
-2398 0
-2399 0
-2400 0
-2401 0
-2402 0
-2403 0
-2404 0
-2405 0
-2406 0
-2407 0
-2408 0
-2409 0
-2410 0
-2411 0
-2412 0
-2413 0
-2414 0
-2415 0
-2416 0
-2417 0
-2418 0
-2419 0
-2420 0
-2421 0
-2422 0
-2423 0
-2424 0
-2425 0
-2426 0
-2427 0
-2428 0
-2429 0
-2430 0
-2431 0
-2432 0
-2433 0
-2434 0
-2435 0
-2436 0
-2437 0
-2438 0
-2439 0
-2440 0
-2441 0
-2442 0
-2443 0
-2444 0
-2445 0
-2446 0
-2447 0
-2448 0
-2449 0
-2450 0
-2451 0
-2452 0
-2453 0
-2454 0
-2455 0
-2456 0
-2457 0
-2458 0
-2459 0
-2460 0
-2461 0
-2462 0
-2463 0
-2464 0
-2465 0
-2466 0
-2467 0
-2468 0
-2469 0
-2470 0
-2471 0
-2472 0
-2473 0
-2474 0
-2475 0
-2476 0
-2477 0
-2482 0
-2483 0
-2484 0
-2485 0
-2486 0
-2487 0
-2489 0
-2490 0
-2491 0
-2492 0
-2493 0
-2494 0
-2495 0
-2496 0
-2497 0
-2498 0
-2499 0
-2500 0
-2501 0
-2502 0
-2503 0
-2505 0
-2506 0
-2507 0
-2508 0
-2509 0
-2510 0
-2511 0
-2512 0
-2513 0
-2514 0
-2515 0
-2516 0
-2517 0
-2518 0
-2519 0
-2520 0
-2521 0
-2522 0
-2523 0
-2524 0
-2525 0
-2526 0
-2527 0
-2528 0
-2529 0
-2530 0
-2531 0
-2532 0
-2533 0
-2534 0
-2535 0
-2536 0
-2537 0
-2538 0
-2539 0
-2540 0
-2541 0
-2542 0
-2543 0
-2544 0
-2545 0
-2546 0
-2547 0
-2548 0
-2549 0
-2550 0
-2551 0
-2552 0
-2553 0
-2554 0
-2555 0
-2556 0
-2557 0
-2558 0
-2559 0
-2560 0
-2561 0
-2562 0
-2563 0
-2564 0
-2565 0
-2566 0
-2567 0
-2568 0
-2569 0
-2570 0
-2571 0
-2572 0
-2573 0
-2574 0
-2575 0
-2576 0
-2577 0
-2578 0
-2579 0
-2580 0
-2581 0
-2582 0
-2583 0
-2584 0
-2585 0
-2586 0
-2587 0
-2588 0
-2589 0
-2590 0
-2591 0
-2592 0
-2593 0
-2594 0
-2595 0
-2596 0
-2597 0
-2598 0
-2599 0
-2600 0
-2601 0
-2602 0
-2603 0
-2604 0
-2605 0
-2606 0
-2607 0
-2608 0
-2609 0
-2610 0
-2611 0
-2612 0
-2613 0
-2614 0
-2615 0
-2616 0
-2617 0
-2618 0
-2619 0
-2620 0
-2621 0
-2622 0
-2623 0
-2624 0
-2625 0
-2626 0
-2627 0
-2628 0
-2629 0
-2630 0
-2631 0
-2632 0
-2633 0
-2634 0
-2635 0
-2636 0
-2637 0
-2638 0
-2639 0
-2640 0
-2641 0
-2642 0
-2643 0
-2644 0
-2645 0
-2646 0
-2647 0
-2648 0
-2649 0
-2650 0
-2651 0
-2652 0
-2653 0
-2654 0
-2655 0
-2656 0
-2657 0
-2658 0
-2659 0
-2660 0
-2661 0
-2662 0
-2663 0
-2664 0
-2665 0
-2666 0
-2667 0
-2668 0
-2669 0
-2670 0
-2671 0
-2672 0
-2673 0
-2674 0
-2675 0
-2676 0
-2677 0
-2678 0
-2679 0
-2680 0
-2681 0
-2682 0
-2683 0
-2684 0
-2685 0
-2686 0
-2687 0
-2688 0
-2689 0
-2690 0
-2691 0
-2692 0
-2693 0
-2694 0
-2695 0
-2696 0
-2697 0
-2698 0
-2699 0
-2700 0
-2701 0
-2702 0
-2703 0
-2704 0
-2705 0
-2706 0
-2707 0
-2708 0
-2709 0
-2710 0
-2711 0
-2712 0
-2713 0
-2714 0
-2715 0
-2716 0
-2717 0
-2718 0
-2719 0
-2720 0
-2721 0
-2722 0
-2723 0
-2724 0
-1778 0
-1779 0
-1780 0
-1781 0
-1782 0
-1783 0
-1784 0
-1785 0
-1786 0
-1787 0
-1788 0
-1789 0
-1790 0
-1791 0
-1792 0
-1793 0
-1794 0
-1795 0
-1796 0
-1797 0
-1798 0
-1799 0
-1800 0
-1801 0
-1802 0
-1803 0
-1804 0
-1805 0
-1806 0
-1807 0
-1808 0
-1809 0
-1810 0
-1811 0
-1812 0
-1813 0
-1695 0
-1696 0
-1697 0
-1698 0
-1699 0
-1700 0
-1701 0
-1702 0
-1703 0
-1704 0
-1705 0
-1706 0
-1707 0
-1708 0
-1709 0
-1710 0
-1711 0
-1712 0
-1713 0
-1714 0
-1715 0
-1716 0
-1717 0
-1718 0
-1719 0
-1720 0
-1721 0
-1722 0
-1723 0
-1724 0
-1725 0
-1726 0
-1727 0
-1728 0
-1729 0
-1730 0
-1731 0
-1732 0
-1733 0
-1734 0
-1735 0
-1736 0
-1737 0
-1738 0
-1739 0
-1740 0
-1741 0
-1742 0
-1743 0
-1744 0
-1745 0
-1746 0
-1747 0
-1748 0
-1749 0
-1750 0
-1751 0
-1752 0
-1753 0
-1754 0
-1755 0
-1756 0
-1757 0
-1758 0
-1759 0
-1760 0
-1761 0
-1762 0
-1938 0
-1939 0
-1940 0
-1941 0
-1942 0
-1943 0
-1935 0
-1817 0
-1818 0
-2158 0
-2159 0
-2160 0
-2161 0
-1944 0
-2162 0
-1945 0
-2163 0
-2164 0
-2165 0
-1946 0
-2166 0
-1947 0
-2167 0
-1673 0
-1674 0
-1675 0
-1676 0
-1677 0
-1678 0
-1679 0
-1680 0
-1681 0
-1682 0
-1683 0
-1684 0
-1948 0
-1685 0
-1949 0
-1686 0
-1950 0
-1687 0
-1951 0
-1688 0
-1689 0
-1690 0
-1691 0
-1692 0
-1693 0
-1694 0
-2051 0
-2052 0
-2053 0
-1936 0
-1952 0
-2054 0
-2055 0
-2056 0
-2057 0
-2058 0
-1953 0
-1954 0
-2059 0
-2060 0
-1955 0
-2061 0
-1956 0
-2062 0
-2063 0
-2064 0
-2065 0
-2066 0
-2067 0
-2068 0
-1957 0
-2069 0
-2070 0
-2071 0
-2072 0
-1606 0
-1607 0
-1958 0
-1608 0
-1959 0
-1609 0
-1610 0
-1611 0
-1612 0
-1960 0
-1961 0
-1613 0
-1614 0
-1615 0
-1616 0
-1617 0
-1618 0
-1619 0
-1620 0
-1621 0
-1622 0
-1623 0
-1624 0
-1625 0
-1626 0
-1627 0
-1962 0
-1937 0
-1864 0
-1963 0
-1865 0
-1964 0
-1965 0
-1866 0
-1867 0
-1868 0
-1869 0
-1870 0
-1871 0
-1872 0
-1873 0
-1874 0
-1875 0
-1876 0
-1966 0
-1877 0
-1878 0
-1879 0
-1880 0
-1881 0
-1882 0
-1967 0
-1883 0
-1968 0
-1884 0
-1885 0
-1969 0
-1970 0
-1886 0
-1887 0
-1888 0
-1889 0
-1890 0
-1891 0
-1892 0
-1893 0
-1971 0
-1972 0
-1894 0
-1895 0
-1896 0
-1973 0
-1897 0
-1898 0
-1899 0
-1900 0
-1901 0
-1902 0
-1903 0
-1814 0
-1904 0
-1905 0
-1906 0
-1907 0
-1908 0
-1909 0
-1910 0
-1911 0
-1974 0
-1912 0
-1913 0
-1914 0
-1975 0
-1915 0
-1976 0
-1916 0
-1917 0
-1977 0
-1978 0
-1918 0
-1919 0
-1920 0
-1921 0
-1922 0
-1923 0
-1924 0
-1925 0
-1926 0
-1927 0
-1928 0
-1929 0
-1930 0
-1931 0
-1932 0
-1933 0
-1934 0
-1628 0
-1629 0
-1630 0
-1631 0
-1632 0
-1633 0
-1634 0
-1635 0
-1636 0
-1637 0
-1638 0
-1639 0
-1640 0
-1641 0
-1642 0
-1643 0
-1644 0
-1645 0
-1646 0
-1647 0
-1648 0
-1649 0
-1650 0
-1651 0
-1652 0
-1653 0
-1654 0
-1655 0
-1656 0
-1657 0
-1658 0
-1659 0
-1660 0
-1661 0
-1662 0
-1663 0
-1664 0
-1665 0
-1666 0
-1667 0
-1815 0
-1668 0
-1669 0
-1670 0
-1671 0
-1672 0
-1819 0
-1820 0
-1821 0
-1822 0
-1823 0
-1824 0
-1825 0
-1826 0
-1827 0
-1828 0
-1829 0
-1830 0
-1831 0
-1832 0
-1833 0
-1834 0
-1835 0
-1836 0
-1837 0
-1838 0
-1839 0
-1840 0
-1841 0
-1842 0
-1843 0
-1844 0
-1845 0
-1846 0
-1847 0
-1848 0
-1849 0
-1850 0
-1851 0
-1852 0
-1816 0
-1853 0
-1854 0
-1855 0
-1856 0
-1857 0
-1858 0
-1859 0
-1860 0
-1861 0
-1862 0
-1863 0
-2006 0
-2007 0
-2008 0
-2009 0
-2010 0
-2011 0
-2012 0
-2013 0
-2014 0
-2015 0
-2016 0
-2017 0
-2018 0
-2019 0
-2020 0
-2021 0
-2022 0
-2023 0
-2024 0
-2025 0
-2026 0
-2027 0
-2028 0
-2029 0
-2030 0
-2031 0
-2032 0
-2033 0
-2034 0
-2035 0
-2036 0
-2037 0
-2038 0
-2039 0
-2040 0
-2041 0
-2042 0
-2043 0
-2044 0
-2045 0
-2046 0
-2047 0
-2048 0
-2049 0
-2050 0
-1763 0
-1764 0
-1765 0
-1766 0
-1767 0
-1768 0
-1769 0
-1770 0
-1771 0
-1772 0
-1773 0
-1774 0
-1775 0
-1776 0
-1777 0

